NAME : 10_3_3_1_(41).dat
COMMENT : Henke, Speranza, Wäscher, 2015
TYPE : MCVRP
DIMENSION : 11
EDGE_WEIGHT_TYPE : DISTANCE_MATRIX
CAPACITY : 1000
VEHICLES : 2
PRODUCT TYPES : 3
COMPARTMENTS : 3
NODE_COORD_SECTION
1 50 50
2 39.41 81.54
3 51 50.63
4 71.11 2.26
5 38.22 18.26
6 43.55 84.56
7 24.65 94.7
8 55.33 21.12
9 9.15 60.98
10 43.49 39.39
11 91.52 37.06
DEMAND_SECTION
1 0 0 0
2 0 0 268
3 0 69 0
4 104 0 0
5 81 0 0
6 73 0 0
7 0 333 0
8 99 0 0
9 112 0 0
10 94 0 0
11 108 0 0
DEPOT_SECTION
1
EOF